InP canonical structure generated from inp_zb_haruna_et_al_1987.cif
1.0
   5.8688000000000002    0.0000000000000000    0.0000000000000004
   0.0000000000000009    5.8688000000000002    0.0000000000000004
   0.0000000000000000    0.0000000000000000    5.8688000000000002
In P
4 4
direct
   0.0000000000000000    0.0000000000000000    0.0000000000000000 In
   0.0000000000000000    0.5000000000000000    0.5000000000000000 In
   0.5000000000000000    0.0000000000000000    0.5000000000000000 In
   0.5000000000000000    0.5000000000000000    0.0000000000000000 In
   0.7500000000000000    0.2500000000000000    0.7500000000000000 P
   0.7500000000000000    0.7500000000000000    0.2500000000000000 P
   0.2500000000000000    0.2500000000000000    0.2500000000000000 P
   0.2500000000000000    0.7500000000000000    0.7500000000000000 P
